
Gurobi 7.0.2 (linux64) logging started Mon Jun 12 17:00:39 2017

Changed value of parameter logfile to result/NEIS-20170612T0949/scenario_200000PVS30PVWE10var-cost0000.log
   Prev: gurobi.log  Default: 
Optimize a model with 1059933 rows, 937229 columns and 3961670 nonzeros
Coefficient statistics:
  Matrix range     [8e-04, 1e+05]
  Objective range  [1e+00, 1e+00]
  Bounds range     [0e+00, 0e+00]
  RHS range        [3e-03, 2e+05]

Concurrent LP optimizer: primal simplex, dual simplex, and barrier
Showing barrier log only...

Presolve removed 594694 rows and 643281 columns
Presolve time: 2.68s
Presolved: 465239 rows, 293948 columns, 1347043 nonzeros

Ordering time: 0.40s

Barrier statistics:
 Dense cols : 21
 AA' NZ     : 1.881e+06
 Factor NZ  : 6.959e+06 (roughly 400 MBytes of memory)
 Factor Ops : 1.640e+08 (less than 1 second per iteration)
 Threads    : 22

                  Objective                Residual
Iter       Primal          Dual         Primal    Dual     Compl     Time
   0   3.86334045e+11 -2.66735717e+11  9.53e+02 6.93e+03  2.20e+07     4s
   1   3.05937556e+11 -9.70959544e+10  6.99e+02 1.33e+04  7.03e+06     4s
   2   2.98674864e+11 -6.89875523e+10  6.90e+02 8.97e+03  5.68e+06     5s
   3   2.07996201e+11 -1.18025916e+11  5.44e+02 1.96e+03  5.36e+06     6s
   4   4.28514872e+10 -1.15748124e+11  8.36e+01 1.65e+02  9.58e+05     6s
   5   4.14137809e+09 -6.25417911e+10  6.25e+00 4.35e+00  1.35e+05     7s
   6   5.23498761e+08 -1.65497413e+10  3.50e-01 6.27e-06  2.49e+04     7s
   7   2.47118394e+08 -2.34304851e+09  4.76e-02 1.22e-06  3.61e+03     7s
   8   1.37577304e+08 -1.07317301e+09  8.36e-03 7.69e-07  1.68e+03     8s
   9   8.70147382e+07 -1.17988714e+08  7.90e-04 5.79e-08  2.83e+02     9s
  10   8.54368267e+07 -3.13274226e+07  7.64e-04 5.48e-08  1.61e+02     9s
  11   6.10879045e+07 -2.50130206e+07  4.96e-04 3.53e-08  1.19e+02     9s
  12   5.05735637e+07 -2.14061740e+07  3.43e-04 3.27e-08  9.94e+01    10s
  13   3.09346090e+07  1.20946600e+06  1.53e-04 1.74e-08  4.11e+01    10s
  14   2.49436604e+07  5.73337588e+06  1.04e-04 1.10e-08  2.65e+01    11s
  15   2.27763370e+07  7.63583092e+06  8.63e-05 7.88e-09  2.09e+01    11s
  16   1.89875295e+07  9.61928687e+06  5.33e-05 4.64e-09  1.29e+01    12s
  17   1.70610971e+07  1.08456300e+07  3.69e-05 2.54e-09  8.58e+00    12s
  18   1.60772792e+07  1.12059853e+07  2.80e-05 2.18e-09  6.73e+00    13s
  19   1.54537012e+07  1.15722061e+07  2.23e-05 1.71e-09  5.36e+00    13s
  20   1.46486401e+07  1.18453333e+07  1.49e-05 1.20e-09  3.87e+00    14s
  21   1.42528612e+07  1.19688429e+07  1.13e-05 1.11e-09  3.15e+00    14s
  22   1.39268658e+07  1.24779711e+07  8.42e-06 6.56e-10  2.00e+00    15s
  23   1.36867747e+07  1.26050335e+07  6.33e-06 1.63e-09  1.49e+00    15s
  24   1.34894373e+07  1.26689225e+07  4.72e-06 5.82e-10  1.13e+00    16s
  25   1.33911424e+07  1.27539613e+07  3.93e-06 5.36e-09  8.80e-01    16s
  26   1.33412319e+07  1.28061082e+07  3.49e-06 4.71e-09  7.39e-01    17s
  27   1.32957323e+07  1.28159194e+07  3.09e-06 4.83e-09  6.63e-01    17s
  28   1.32458755e+07  1.28302211e+07  2.66e-06 6.98e-09  5.74e-01    18s
  29   1.32012946e+07  1.28392964e+07  2.28e-06 7.68e-09  5.00e-01    18s
  30   1.31633547e+07  1.28529590e+07  1.96e-06 7.16e-09  4.29e-01    18s
  31   1.31247338e+07  1.28611634e+07  1.63e-06 7.74e-09  3.64e-01    19s
  32   1.30771871e+07  1.28701050e+07  1.24e-06 9.37e-09  2.86e-01    19s
  33   1.30439092e+07  1.28846989e+07  9.67e-07 1.17e-08  2.20e-01    20s
  34   1.30357951e+07  1.28880539e+07  8.99e-07 1.20e-08  2.04e-01    21s
  35   1.30099652e+07  1.28947076e+07  6.76e-07 1.39e-08  1.59e-01    21s
  36   1.30028834e+07  1.29015189e+07  6.16e-07 1.07e-08  1.40e-01    21s
  37   1.29949989e+07  1.29053378e+07  5.52e-07 1.37e-08  1.24e-01    22s
  38   1.29865984e+07  1.29092888e+07  4.80e-07 1.22e-08  1.07e-01    22s
  39   1.29740325e+07  1.29126068e+07  3.78e-07 1.34e-08  8.48e-02    23s
  40   1.29658830e+07  1.29144478e+07  3.10e-07 1.41e-08  7.10e-02    23s
  41   1.29606424e+07  1.29182388e+07  2.69e-07 7.28e-09  5.86e-02    24s
  42   1.29570401e+07  1.29189596e+07  2.40e-07 1.13e-08  5.26e-02    24s
  43   1.29519091e+07  1.29199873e+07  1.97e-07 8.61e-09  4.41e-02    25s
  44   1.29493182e+07  1.29211359e+07  1.76e-07 4.60e-09  3.89e-02    25s
  45   1.29466051e+07  1.29221867e+07  1.53e-07 5.12e-09  3.37e-02    26s
  46   1.29420484e+07  1.29228362e+07  1.18e-07 9.02e-09  2.65e-02    26s
  47   1.29407358e+07  1.29231116e+07  1.07e-07 6.69e-09  2.43e-02    26s
  48   1.29382308e+07  1.29237792e+07  8.64e-08 1.08e-08  2.00e-02    27s
  49   1.29351554e+07  1.29251154e+07  6.23e-08 1.11e-08  1.39e-02    28s
  50   1.29335531e+07  1.29254216e+07  4.98e-08 1.03e-08  1.12e-02    28s
  51   1.29327080e+07  1.29258994e+07  4.27e-08 5.59e-09  9.40e-03    29s
  52   1.29321811e+07  1.29261459e+07  3.83e-08 6.11e-09  8.33e-03    29s
  53   1.29306053e+07  1.29265087e+07  2.54e-08 2.39e-09  5.66e-03    29s
  54   1.29299137e+07  1.29268123e+07  1.98e-08 1.98e-09  4.28e-03    30s
  55   1.29297691e+07  1.29268629e+07  1.86e-08 4.95e-09  4.01e-03    30s
  56   1.29292844e+07  1.29268949e+07  1.51e-08 5.70e-09  3.30e-03    31s
  57   1.29289232e+07  1.29270466e+07  1.22e-08 8.73e-11  2.59e-03    31s
  58   1.29288324e+07  1.29270653e+07  1.15e-08 7.28e-11  2.44e-03    32s
  59   1.29285546e+07  1.29271263e+07  9.22e-09 5.09e-11  1.97e-03    32s
  60   1.29284229e+07  1.29271648e+07  8.14e-09 1.07e-10  1.74e-03    33s
  61   1.29283969e+07  1.29271913e+07  7.93e-09 4.55e-11  1.66e-03    33s
  62   1.29283251e+07  1.29272060e+07  7.38e-09 2.26e-10  1.55e-03    34s
  63   1.29281352e+07  1.29272337e+07  5.84e-09 4.66e-10  1.25e-03    34s
  64   1.29280633e+07  1.29272938e+07  5.29e-09 6.68e-09  1.06e-03    35s
  65   1.29279504e+07  1.29273119e+07  4.42e-09 1.00e-08  8.82e-04    35s
  66   1.29278603e+07  1.29273267e+07  3.77e-09 1.20e-10  7.37e-04    36s
  67   1.29278226e+07  1.29273315e+07  3.45e-09 6.69e-10  6.78e-04    36s
  68   1.29277505e+07  1.29273383e+07  2.84e-09 7.93e-10  5.69e-04    37s
  69   1.29277010e+07  1.29273506e+07  2.43e-09 2.67e-09  4.84e-04    38s
  70   1.29276802e+07  1.29273633e+07  2.25e-09 1.99e-09  4.38e-04    38s
  71   1.29276284e+07  1.29273695e+07  1.88e-09 3.20e-09  3.57e-04    39s
  72   1.29276123e+07  1.29273752e+07  1.74e-09 2.58e-09  3.27e-04    39s
  73   1.29275898e+07  1.29273792e+07  1.55e-09 2.23e-09  2.91e-04    40s
  74   1.29275836e+07  1.29273805e+07  1.50e-09 2.12e-09  2.80e-04    41s
  75   1.29275658e+07  1.29273830e+07  1.36e-09 1.67e-09  2.52e-04    42s
  76   1.29274901e+07  1.29273892e+07  7.34e-10 2.97e-09  1.39e-04    43s
  77   1.29274823e+07  1.29273918e+07  7.67e-08 3.72e-09  1.25e-04    44s
  78   1.29274640e+07  1.29273933e+07  5.68e-08 4.77e-09  9.78e-05    44s
  79   1.29274464e+07  1.29273944e+07  8.09e-07 1.19e-08  7.18e-05    45s
  80   1.29274217e+07  1.29273959e+07  5.35e-07 7.02e-09  3.56e-05    45s
  81   1.29274162e+07  1.29273970e+07  6.92e-07 4.98e-09  2.66e-05    46s
  82   1.29274117e+07  1.29273984e+07  8.56e-07 4.13e-09  1.84e-05    46s
  83   1.29274117e+07  1.29273984e+07  1.27e-06 4.89e-09  1.84e-05    47s
  84   1.29274117e+07  1.29273984e+07  1.27e-06 2.68e-09  1.84e-05    48s
  85   1.29274117e+07  1.29273984e+07  1.27e-06 1.28e-09  1.84e-05    49s
  86   1.29274117e+07  1.29273984e+07  1.27e-06 3.64e-10  1.84e-05    49s
  87   1.29274117e+07  1.29273984e+07  1.27e-06 7.42e-10  1.84e-05    50s
  88   1.29274117e+07  1.29273984e+07  1.27e-06 3.57e-10  1.84e-05    51s
  89   1.29274117e+07  1.29273984e+07  1.27e-06 2.33e-10  1.84e-05    52s
  90   1.29274117e+07  1.29273984e+07  1.27e-06 5.53e-10  1.84e-05    53s
  91   1.29274117e+07  1.29273984e+07  1.96e-06 5.68e-10  1.84e-05    54s
  92   1.29274117e+07  1.29273984e+07  1.96e-06 7.57e-10  1.84e-05    55s

Barrier performed 92 iterations in 54.60 seconds
Sub-optimal termination - objective 1.29274162e+07

Crossover log...

  180954 DPushes remaining with DInf 0.0000000e+00                55s
  109540 DPushes remaining with DInf 0.0000000e+00                55s
   47965 DPushes remaining with DInf 0.0000000e+00                60s
   41913 DPushes remaining with DInf 0.0000000e+00                65s
   39065 DPushes remaining with DInf 0.0000000e+00                70s
   36217 DPushes remaining with DInf 0.0000000e+00                75s
   33369 DPushes remaining with DInf 0.0000000e+00                81s
   30877 DPushes remaining with DInf 0.0000000e+00                85s
   28385 DPushes remaining with DInf 0.0000000e+00                90s
   21977 DPushes remaining with DInf 0.0000000e+00                95s
   18061 DPushes remaining with DInf 0.0000000e+00               100s
   12365 DPushes remaining with DInf 0.0000000e+00               105s
    6440 DPushes remaining with DInf 0.0000000e+00               110s
    3442 DPushes remaining with DInf 0.0000000e+00               116s
       0 DPushes remaining with DInf 1.9228328e-09               118s

  164301 PPushes remaining with PInf 1.1110150e-02               118s
   12751 PPushes remaining with PInf 1.1797624e-01               120s
       0 PPushes remaining with PInf 1.3090988e-02               122s

  Push phase complete: Pinf 1.3090988e-02, Dinf 1.3201707e+03    122s

Iteration    Objective       Primal Inf.    Dual Inf.      Time
  344345    1.2927400e+07   0.000000e+00   1.320171e+03    122s
  344674    1.2927400e+07   0.000000e+00   0.000000e+00    124s

Solved with barrier
Solved in 344674 iterations and 123.69 seconds
Optimal objective  1.292740015e+07
